nApps = 212
nRes = 9
nActs = 422
nNetworks = 6

assignmentToResources = [2,2,1,2,2,2,2,2,2,2,2,1,1,1,3,1,2,1,2,1,1,1,2,1,1,2,3,1,2,1,3,1,2,1,3,2,2,2,1,3,2,2,2,1,2,2,2,3,2,2,3,1,1,3,2,3,3,1,2,1,3,1,3,1,3,2,3,1,1,3,2,1,1,3,1,3,2,1,3,3,3,3,3,2,2,2,3,2,2,1,3,1,2,2,1,2,1,1,1,1,5,5,5,5,5,4,5,5,5,5,5,5,5,5,5,5,5,5,5,5,4,4,4,4,4,6,6,5,4,4,5,4,4,4,5,4,4,4,4,4,5,5,5,5,6,6,6,4,4,4,5,4,6,6,6,6,4,4,4,4,6,6,6,5,5,5,5,5,5,5,4,4,6,6,6,6,6,5,5,5,4,4,5,5,6,5,5,6,6,4,4,4,4,4,4,4,6,6,5,6,6,5,6,6,6,6,6,6,6,5,5,5,6,4,4,4,4,4,6,6,6,6,6,6,6,6,6,5,5,5,5,6,6,5,4,4,5,4,4,4,5,7,6,8,6,7,5,7,5,9,4,9,5,7,6,8,5,9,6,7,4,9,6,8,5,7,6,7,4,8,5,9,4,8,5,7,6,8,5,9,4,9,7,9,9,7,7,8,7,7,7,9,7,7,9,9,7,9,9,9,7,7,9,8,8,9,9,7,8,7,8,8,7,9,8,8,7,8,8,9,8,9,7,9,7,9,7,7,7,9,8,8,7,9,7,8,8,8,9,9,8,9,7,8,7,9,7,7,9,9,9,9,8,9,8,7,7,8,7,7,9,9,8,8,7,9,8,9,9,7,7,8,8,8,9,8,8,9,7,7,7,8,7,7,8,7,8,7,7,8,7,7,9,9,8,9,9,8,8,9,7,7,8,8,8,7,7,7,8,7,9,7,9,8,7,7,8,8,7,8,9,8];

processingTimes = [120,152,136,136,104,120,104,136,120,72,152,72,120,120,160,80,64,112,136,136,128,80,88,104,96,104,136,120,128,128,104,128,160,104,104,136,64,96,168,136,104,152,96,136,152,104,160,104,120,56,136,136,136,112,144,152,144,128,136,112,48,160,104,104,48,112,136,136,128,128,88,152,128,128,160,112,64,136,136,56,120,128,128,160,136,112,128,160,128,64,112,80,64,120,88,72,152,40,128,136,5,500,500,5,3,13,3,8,500,3,4,500,3,500,500,3,4,100,3,13,3,500,4,4,3,3,4,4,3,8,4,5,3,4,500,4,3,3,3,4,4,4,13,500,3,500,4,4,3,3,4,3,4,4,4,3,3,3,3,500,4,4,500,4,4,5,5,3,13,13,8,500,500,5,4,4,4,500,3,500,3,3,4,3,500,13,13,7,4,4,3,500,5,5,3,3,3,500,500,4,500,200,3,500,4,3,3,4,4,5,500,3,3,4,3,3,5,3,3,3,500,3,3,500,100,5,5,7,4,3,5,3,3,4,3,3,4,4,4,4,3,3,3,3,4,4,4,4,13,13,5,5,3,3,3,3,4,4,4,4,3,3,3,3,4,4,500,500,500,500,500,500,3,3,8,8,4,4,13,13,3,3,5,500,500,5,3,13,3,8,500,3,4,500,3,500,500,3,4,100,3,13,3,500,4,4,3,3,4,4,3,8,4,5,3,4,500,4,3,3,3,4,4,4,13,500,3,500,4,4,3,3,4,3,4,4,4,3,3,3,3,500,4,4,500,4,4,5,5,3,13,13,8,500,500,5,4,4,4,500,3,500,3,3,4,3,500,13,13,7,4,4,3,500,5,5,3,3,3,500,500,4,500,200,3,500,4,3,3,4,4,5,500,3,3,4,3,3,5,3,3,3,500,3,3,500,100,5,5,7,4,3,5,3,3,4,3,3,4,4,4,4];

periods = [20000,10000,20000,10000,100000,20000,20000,20000,20000,1000,100000,10000,20000,10000,10000,10000,10000,10000,20000,20000,100000,100000,10000,100000,10000,10000,10000,10000,20000,20000,100000,100000,100000,20000,20000,100000,10000,100000,20000,10000,100000,100000,20000,10000,100000,100000,10000,20000,20000,20000,50000,100000,20000,20000,20000,20000,10000,10000,2000,20000,20000,10000,10000,20000,100000,10000,20000,10000,50000,10000,20000,50000,100000,100000,2000,100000,100000,20000,1000,20000,10000,100000,1000,20000,10000,10000,20000,100000,10000,10000,10000,1000,10000,100000,10000,2000,10000,5000,20000,20000,20000,10000,10000,10000,10000,20000,10000,10000,100000,20000,20000,20000,20000,20000,20000,1000,1000,1000,100000,100000,10000,20000,10000,10000,10000,10000,10000,10000,10000,10000,20000,20000,100000,100000,10000,100000,100000,100000,10000,10000,10000,10000,10000,10000,10000,10000,10000,10000,10000,10000,20000,20000,100000,100000,100000,100000,100000,100000,20000,20000,20000,20000,20000,100000,10000,10000,10000,10000,100000,100000,20000,20000,10000,10000,10000,10000,10000,100000,100000,20000,10000,10000,100000,100000,20000,20000,20000,50000,50000,100000,20000,20000,20000,20000,20000,20000,20000,20000,20000,20000,10000,2000,20000,10000,10000,10000,100000,100000,100000,10000,10000,10000,20000,10000,50000,50000,100000,100000,100000,20000,10000,10000,100000,100000,1000,1000,1000,10000,10000,10000,10000,20000,20000,10000,1000,10000,2000,5000,5000,5000,20000,20000,20000,20000,100000,100000,100000,100000,100000,100000,100000,100000,100000,100000,100000,100000,100000,100000,100000,100000,100000,100000,20000,20000,20000,20000,10000,10000,10000,10000,10000,10000,20000,20000,20000,20000,20000,20000,20000,20000,1000,1000,20000,10000,10000,10000,10000,20000,10000,10000,100000,20000,20000,20000,20000,20000,20000,1000,1000,1000,100000,100000,10000,20000,10000,10000,10000,10000,10000,10000,10000,10000,20000,20000,100000,100000,10000,100000,100000,100000,10000,10000,10000,10000,10000,10000,10000,10000,10000,10000,10000,10000,20000,20000,100000,100000,100000,100000,100000,100000,20000,20000,20000,20000,20000,100000,10000,10000,10000,10000,100000,100000,20000,20000,10000,10000,10000,10000,10000,100000,100000,20000,10000,10000,100000,100000,20000,20000,20000,50000,50000,100000,20000,20000,20000,20000,20000,20000,20000,20000,20000,20000,10000,2000,20000,10000,10000,10000,100000,100000,100000,10000,10000,10000,20000,10000,50000,50000,100000,100000,100000,20000,10000,10000,100000,100000,1000,1000,1000,10000,10000,10000,10000,20000,20000,10000,1000,10000,2000,5000,5000,5000];

assignmentToClusters = [1,2,3,4,5,6,7,8,9,10,5,11,12,13,11,14,15,16,17,18,19,5,20,21,22,23,24,25,26,27,28,5,29,8,30,31,32,5,33,34,35,36,37,38,5,5,39,40,17,3,41,5,42,43,44,17,45,46,47,48,49,11,50,51,5,11,3,52,53,54,17,53,5,5,55,5,5,17,56,57,58,5,59,60,61,62,8,63,64,65,15,56,66,5,67,68,69,70,71,72,73,74,75,76,77,78,79,80,81,82,83,84,85,86,87,88,89,90,91,92,93,94,95,96,97,98,99,100,101,102,103,104,105,106,107,108,109,110,111,112,113,114,115,116,117,118,119,120,121,122,123,124,125,126,127,128,129,130,131,132,133,134,135,136,137,138,139,140,141,142,143,144,145,146,147,148,149,150,151,152,153,154,155,156,157,158,159,160,161,162,163,164,165,166,167,168,169,170,171,172,173,174,175,176,177,178,179,180,181,182,183,184,185,186,187,188,189,190,191,192,193,194,195,196,197,198,199,200,201,202,203,204,205,206,207,208,209,210,211,212,3,3,3,3,5,5,5,5,5,5,5,5,5,5,5,5,5,5,5,5,5,5,8,8,8,8,11,11,11,11,15,15,17,17,17,17,17,17,17,17,56,56,73,74,75,76,77,78,79,80,81,82,83,84,85,86,87,88,89,90,91,92,93,94,95,96,97,98,99,100,101,102,103,104,105,106,107,108,109,110,111,112,113,114,115,116,117,118,119,120,121,122,123,124,125,126,127,128,129,130,131,132,133,134,135,136,137,138,139,140,141,142,143,144,145,146,147,148,149,150,151,152,153,154,155,156,157,158,159,160,161,162,163,164,165,166,167,168,169,170,171,172,173,174,175,176,177,178,179,180,181,182,183,184,185,186,187,188,189,190,191,192,193,194,195,196,197,198,199,200,201,202,203,204,205,206,207,208,209,210,211,212];

precedenceAdjList = [[],[],[241],[],[76,10],[],[],[263],[],[],[],[267],[],[],[],[],[],[],[273],[],[],[72],[],[],[],[],[],[],[],[],[],[259],[],[265],[],[],[],[4],[],[],[],[],[],[],[],[255],[],[],[],[243],[],[245,247],[],[],[],[279],[],[],[],[],[],[11],[],[],[],[269],[],[],[71],[],[277],[],[253],[257],[],[249,251],[],[275],[281],[],[],[261],[],[],[],[],[],[],[],[],[271],[],[],[4],[],[],[],[],[],[],[],[],[],[],[],[],[],[],[],[],[],[],[],[],[],[],[],[],[],[],[],[],[],[],[],[],[],[],[],[],[],[],[],[],[],[],[],[],[],[],[],[],[],[],[],[],[],[],[],[],[],[],[],[],[],[],[],[],[],[],[],[],[],[],[],[],[],[],[],[],[],[],[],[],[],[],[],[],[],[],[],[],[],[],[],[],[],[],[],[],[],[],[],[],[],[],[],[],[],[],[],[],[],[],[],[],[],[],[],[],[],[],[],[],[],[],[],[],[],[],[],[],[],[],[],[],[],[],[],[],[],[],[],[],[],[],[],[],[],[],[49],[240],[66],[242],[64],[244],[93],[246],[37],[248],[72],[250],[45],[252],[73],[254],[44],[256],[73],[258],[31],[260],[86],[262],[7],[264],[14],[266],[11],[268],[16],[270],[77],[272],[70],[274],[55],[276],[48],[278],[91],[280],[100],[101],[102],[103],[104],[105],[106],[107],[108],[109],[110],[111],[112],[113],[114],[115],[116],[117],[118],[119],[120],[121],[122],[123],[124],[125],[126],[127],[128],[129],[130],[131],[132],[133],[134],[135],[136],[137],[138],[139],[140],[141],[142],[143],[144],[145],[146],[147],[148],[149],[150],[151],[152],[153],[154],[155],[156],[157],[158],[159],[160],[161],[162],[163],[164],[165],[166],[167],[168],[169],[170],[171],[172],[173],[174],[175],[176],[177],[178],[179],[180],[181],[182],[183],[184],[185],[186],[187],[188],[189],[190],[191],[192],[193],[194],[195],[196],[197],[198],[199],[200],[201],[202],[203],[204],[205],[206],[207],[208],[209],[210],[211],[212],[213],[214],[215],[216],[217],[218],[219],[220],[221],[222],[223],[224],[225],[226],[227],[228],[229],[230],[231],[232],[233],[234],[235],[236],[237],[238],[239]];